NAME: ./prFile/tspFile/tsp_file97.tsp
COMMENT: TSP file generated by Python
TYPE: TSP
DIMENSION: 40
EDGE_WEIGHT_TYPE: EUC_2D
NODE_COORD_SECTION
1 65 54
2 44 98
3 53 15
4 99 75
5 62 15
6 22 99
7 73 86
8 23 55
9 62 32
10 76 25
11 95 45
12 43 60
13 90 56
14 34 32
15 24 89
16 57 72
17 7 72
18 53 25
19 1 5
20 82 46
21 60 73
22 58 27
23 66 27
24 52 87
25 89 57
26 74 8
27 45 23
28 73 42
29 88 28
30 21 55
31 84 100
32 48 57
33 40 61
34 86 23
35 67 42
36 8 60
37 42 98
38 24 91
39 58 21
40 84 81
EOF
